; benchmark generated from python API
(set-info :status unknown)
(declare-datatypes ((RealState 0)) (((RMk1 (rval1 Real)) (RMk2 (rval2 Real)))))
 (assert
 (forall ((|v17:0| Real) )(forall ((|v16:1| Real) )(forall ((|v15:2| Real) )(forall ((|v14:3| Real) )(forall ((|v13:4| Real) )(forall ((|v12:5| Real) )(exists ((|v11:6_st| RealState) (val!8742 Real) )(exists ((|v10:7_st| RealState) (val!8743 Real) )(exists ((|v9:8_st| RealState) (val!8744 Real) )(exists ((|v8:9_st| RealState) (val!8745 Real) )(exists ((|v7:10_st| RealState) (val!8746 Real) )(exists ((|v6:11_st| RealState) (val!8747 Real) )(forall ((|v5:12| Real) )(forall ((|v4:13| Real) )(forall ((|v3:14| Real) )(forall ((|v2:15| Real) )(forall ((|v1:16| Real) )(forall ((|v0:17| Real) )(let ((?x1846 (- 18.0)))
 (let ((?x4204 (* ?x1846 |v5:12|)))
 (let ((?x3498 (rval2 |v6:11_st|)))
 (let ((?x4201 (- 19.0)))
 (let ((?x6272 (* ?x4201 ?x3498)))
 (let ((?x1782 (- 15.0)))
 (let ((?x4908 (* ?x1782 ?x3498)))
 (let ((?x101 (- 11.0)))
 (let ((?x1538 (* ?x101 |v14:3|)))
 (let ((?x283 (+ (+ (+ (+ (* 2.0 |v4:13|) (* 16.0 |v5:12|)) (* 17.0 ?x3498)) ?x1538) ?x4908)))
 (let ((?x2169 (- 17.0)))
 (let ((?x2853 (* ?x2169 |v4:13|)))
 (let ((?x3481 (* 19.0 |v17:0|)))
 (let ((?x1862 (- 1.0)))
 (let ((?x3040 (* ?x1862 |v4:13|)))
 (let ((?x1483 (- 3.0)))
 (let ((?x914 (* ?x1483 |v15:2|)))
 (let ((?x2464 (rval2 |v9:8_st|)))
 (let ((?x471 (* 10.0 ?x2464)))
 (let ((?x2127 (+ (+ (+ (+ (* ?x1846 |v1:16|) (* 5.0 (rval2 |v8:9_st|))) ?x471) ?x914) ?x3040)))
 (let (($x2737 (or (<= (+ (+ ?x2127 ?x3481) ?x2853) 3.0) (<= (+ (+ ?x283 ?x6272) ?x4204) 13.0))))
 (let ((?x3262 (* 7.0 |v4:13|)))
 (let ((?x3401 (* ?x101 |v13:4|)))
 (let ((?x1896 (* 14.0 |v15:2|)))
 (let ((?x3250 (* ?x1862 |v13:4|)))
 (let ((?x3189 (- 12.0)))
 (let ((?x4722 (* ?x3189 ?x2464)))
 (let ((?x1540 (+ (+ (+ (+ (* ?x1862 (rval2 |v10:7_st|)) (* (- 8.0) ?x2464)) ?x4722) ?x3250) ?x1896)))
 (let ((?x6774 (* 2.0 ?x3498)))
 (let ((?x2719 (- 16.0)))
 (let ((?x801 (* ?x2719 |v1:16|)))
 (let ((?x3866 (* 3.0 |v13:4|)))
 (let ((?x1032 (rval2 |v10:7_st|)))
 (let ((?x1971 (* 7.0 ?x1032)))
 (let ((?x2876 (+ (+ (+ (+ (* (- 6.0) (rval2 |v7:10_st|)) (* 15.0 |v12:5|)) ?x1971) |v15:2|) ?x3866)))
 (let (($x2173 (or (<= (+ (+ ?x2876 ?x801) ?x6774) ?x1846) (<= (+ (+ ?x1540 ?x3401) ?x3262) ?x2169))))
 (let ((?x430 (- 13.0)))
 (let ((?x1430 (- 20.0)))
 (let ((?x728 (* ?x1430 |v0:17|)))
 (let ((?x3878 (* 18.0 |v1:16|)))
 (let ((?x1629 (+ (+ (+ (+ (* 16.0 |v17:0|) (* ?x2169 |v17:0|)) (* (- 9.0) ?x2464)) ?x3878) ?x1538)))
 (let ((?x2076 (* ?x1483 |v4:13|)))
 (let ((?x3664 (* ?x1483 |v16:1|)))
 (let ((?x3920 (+ (+ (+ (* (- 2.0) ?x2464) (* 16.0 |v16:1|)) (* 10.0 |v0:17|)) ?x3664)))
 (let ((?x4213 (* 8.0 |v5:12|)))
 (let ((?x4520 (* ?x4201 |v4:13|)))
 (let ((?x45 (* ?x2719 |v15:2|)))
 (let ((?x410 (+ (+ (+ (* 14.0 (rval2 |v11:6_st|)) (* ?x430 |v0:17|)) (* (- 2.0) |v13:4|)) ?x45)))
 (let (($x3646 (and (<= (+ (+ (+ ?x410 ?x4520) (* 2.0 |v14:3|)) ?x4213) ?x1430) (<= (+ (+ (+ ?x3920 ?x2076) (* 9.0 |v12:5|)) ?x2853) ?x3189))))
 (let ((?x2714 (* ?x1862 |v3:14|)))
 (let ((?x679 (* 0.0 |v1:16|)))
 (let ((?x589 (* ?x4201 |v15:2|)))
 (let ((?x3214 (+ (+ (+ (* (- 4.0) |v12:5|) (* (- 5.0) |v0:17|)) |v4:13|) (* ?x2169 |v15:2|))))
 (let (($x1962 (and (or (<= (+ (+ (+ ?x3214 ?x589) ?x679) ?x2714) 18.0) $x3646) (or (<= (+ (+ ?x1629 ?x728) (* 15.0 ?x2464)) ?x430) $x2173))))
 (let ((?x4230 (rval2 |v11:6_st|)))
 (let ((?x2934 (* 10.0 ?x4230)))
 (let ((?x275 (* 17.0 |v4:13|)))
 (let ((?x1931 (* 7.0 |v13:4|)))
 (let ((?x3198 (- 5.0)))
 (let ((?x3216 (* ?x3198 |v14:3|)))
 (let ((?x2515 (+ (+ (+ (+ (* ?x3189 |v15:2|) (* 3.0 ?x1032)) (* 9.0 |v1:16|)) ?x3216) ?x1931)))
 (let ((?x1130 (- 10.0)))
 (let ((?x2864 (* ?x1130 |v2:15|)))
 (let ((?x2579 (rval2 |v8:9_st|)))
 (let ((?x917 (* 2.0 ?x2579)))
 (let ((?x3865 (* 4.0 |v0:17|)))
 (let ((?x5735 (+ (+ (+ (+ (* ?x1483 ?x2464) (* ?x1782 |v17:0|)) (* 5.0 ?x4230)) ?x3865) ?x917)))
 (let (($x4107 (and (<= (+ (+ ?x5735 ?x4722) ?x2864) 11.0) (<= (+ (+ ?x2515 ?x275) ?x2934) 6.0))))
 (let ((?x3313 (* 0.0 |v16:1|)))
 (let ((?x2232 (- 7.0)))
 (let ((?x3191 (* ?x2232 ?x1032)))
 (let ((?x366 (* 5.0 |v2:15|)))
 (let ((?x3728 (rval2 |v7:10_st|)))
 (let ((?x4148 (* 7.0 ?x3728)))
 (let ((?x6424 (+ (+ (+ (+ (* ?x1782 |v5:12|) (* (- 6.0) ?x4230)) (* ?x1430 |v13:4|)) ?x4148) ?x366)))
 (let ((?x2092 (- 9.0)))
 (let ((?x2769 (* ?x2092 |v16:1|)))
 (let ((?x346 (- 6.0)))
 (let ((?x82 (* ?x346 |v0:17|)))
 (let ((?x1054 (* 12.0 |v3:14|)))
 (let ((?x2644 (* 12.0 |v14:3|)))
 (let ((?x4479 (+ (+ (+ (+ (* 10.0 |v4:13|) (* ?x2092 |v12:5|)) (* 17.0 |v2:15|)) ?x2644) ?x1054)))
 (let (($x2546 (or (<= (+ (+ ?x4479 ?x82) ?x2769) ?x1483) (<= (+ (+ ?x6424 ?x3191) ?x3313) 2.0))))
 (let ((?x2282 (- 2.0)))
 (let ((?x2339 (* ?x1130 |v4:13|)))
 (let ((?x375 (* ?x430 ?x4230)))
 (let ((?x2306 (* 5.0 |v13:4|)))
 (let ((?x2363 (+ (+ (+ (+ ?x2714 (* 12.0 ?x2464)) (* (- 4.0) |v5:12|)) (* ?x4201 ?x4230)) ?x2306)))
 (let ((?x663 (* ?x1846 |v4:13|)))
 (let ((?x1785 (* 15.0 |v15:2|)))
 (let ((?x1983 (* ?x2092 ?x1032)))
 (let ((?x3398 (* 2.0 |v3:14|)))
 (let ((?x6323 (+ (+ (+ (+ (+ (* 16.0 ?x1032) (* (- 8.0) |v2:15|)) ?x1538) ?x3398) ?x1983) ?x1785)))
 (let ((?x9046 (* ?x1846 ?x3498)))
 (let ((?x759 (* 2.0 |v16:1|)))
 (let ((?x241 (+ (+ (+ (+ (* ?x2232 |v1:16|) (* (- 4.0) |v2:15|)) (* ?x1862 ?x2579)) ?x4520) ?x759)))
 (let (($x1367 (or (<= (+ (+ ?x241 ?x9046) (* ?x1782 ?x4230)) 17.0) (or (<= (+ ?x6323 ?x663) 7.0) (<= (+ (+ ?x2363 ?x375) ?x2339) ?x2282)))))
 (let ((?x22 (* 6.0 ?x2464)))
 (let ((?x2523 (* 18.0 ?x3728)))
 (let ((?x3042 (* 7.0 ?x4230)))
 (let ((?x1748 (+ (+ (+ (+ (+ ?x3216 ?x914) (* 9.0 |v15:2|)) (* 14.0 |v12:5|)) ?x3042) ?x2523)))
 (let (($x1446 (and (or (<= (+ ?x1748 ?x22) ?x1782) (and $x1367 (or $x2546 $x4107))) (or $x1962 $x2737))))
 (let ((?x2073 (* ?x1483 |v2:15|)))
 (let ((?x5459 (* ?x3189 ?x3728)))
 (let ((?x1351 (+ (+ (+ (+ (* 18.0 |v2:15|) (* ?x1846 ?x1032)) (* ?x1130 ?x4230)) ?x5459) ?x2073)))
 (let ((?x1742 (* ?x2232 |v16:1|)))
 (let ((?x8835 (* 18.0 ?x2579)))
 (let ((?x2975 (* 0.0 |v2:15|)))
 (let ((?x342 (* ?x1130 |v3:14|)))
 (let ((?x4775 (+ (+ (+ (+ (* 5.0 |v12:5|) (* 15.0 |v3:14|)) (* 12.0 |v2:15|)) ?x342) ?x2975)))
 (let (($x2472 (and (<= (+ (+ ?x4775 ?x8835) ?x1742) ?x1483) (<= (+ (+ ?x1351 (* 6.0 |v16:1|)) (* (- 8.0) ?x2579)) 0.0))))
 (let ((?x3294 (* 8.0 |v14:3|)))
 (let ((?x1623 (* ?x2282 |v13:4|)))
 (let ((?x2445 (+ (+ (+ (+ (* ?x1782 |v16:1|) (* ?x346 |v5:12|)) ?x22) (* 16.0 |v3:14|)) ?x1623)))
 (let ((?x85 (* 17.0 |v14:3|)))
 (let ((?x6879 (* 8.0 ?x2464)))
 (let ((?x2480 (+ (+ (+ (+ (* 2.0 |v17:0|) (* ?x2282 ?x2579)) (* 19.0 |v16:1|)) ?x6879) (* ?x1130 |v15:2|))))
 (let (($x2905 (or (<= (+ (+ ?x2480 ?x85) (* ?x2232 |v15:2|)) ?x1862) (<= (+ (+ ?x2445 (* ?x1483 |v17:0|)) ?x3294) ?x3189))))
 (let ((?x3047 (* ?x1430 |v13:4|)))
 (let ((?x2422 (* ?x2169 |v2:15|)))
 (let ((?x4493 (+ (+ (+ (+ (* 4.0 ?x4230) ?x2579) (* ?x430 ?x2579)) (* ?x2092 |v4:13|)) ?x2422)))
 (let ((?x1374 (* 18.0 ?x2464)))
 (let ((?x2894 (* 6.0 |v3:14|)))
 (let ((?x2858 (* 10.0 |v3:14|)))
 (let ((?x1313 (+ (+ (+ (+ (* ?x1430 |v12:5|) (* ?x2092 ?x2464)) (* ?x1483 |v5:12|)) ?x2858) ?x2894)))
 (let (($x455 (and (<= (+ (+ ?x1313 (* ?x2719 |v12:5|)) ?x1374) 3.0) (<= (+ (+ ?x4493 (* (- 14.0) |v15:2|)) ?x3047) 2.0))))
 (let ((?x957 (* ?x1782 |v16:1|)))
 (let ((?x527 (+ (+ (+ (+ (* (- 4.0) |v16:1|) (* ?x1782 |v15:2|)) ?x2714) (* 12.0 |v17:0|)) ?x2853)))
 (let ((?x2872 (* 16.0 |v14:3|)))
 (let ((?x4658 (* ?x2282 |v12:5|)))
 (let ((?x583 (* ?x101 |v3:14|)))
 (let ((?x2765 (+ (+ (+ (+ (* 19.0 |v16:1|) (* ?x2169 ?x2464)) ?x375) (* 14.0 |v14:3|)) ?x583)))
 (let (($x3390 (or (<= (+ (+ ?x2765 ?x4658) ?x2872) 4.0) (<= (+ (+ ?x527 ?x957) ?x1538) ?x3198))))
 (let ((?x3431 (* 10.0 |v5:12|)))
 (let ((?x1771 (- 14.0)))
 (let ((?x2684 (* ?x1771 |v5:12|)))
 (let ((?x2051 (+ (+ (+ (* 13.0 |v17:0|) (* 14.0 |v3:14|)) (* 18.0 |v15:2|)) (* ?x2282 |v14:3|))))
 (let ((?x1845 (* 8.0 ?x4230)))
 (let ((?x3290 (+ (+ (+ (+ (* 17.0 ?x3498) (* ?x1130 |v16:1|)) ?x3401) (* 4.0 |v15:2|)) (* ?x1130 |v14:3|))))
 (let (($x3970 (and (<= (+ (+ ?x3290 (* ?x1483 ?x3498)) ?x1845) 3.0) (<= (+ (+ (+ ?x2051 ?x2684) (* ?x4201 ?x2579)) ?x3431) ?x2282))))
 (let ((?x2441 (* 3.0 |v5:12|)))
 (let ((?x2938 (* ?x2092 ?x2464)))
 (let ((?x2227 (+ (+ (+ (* (- 4.0) ?x1032) (* (- 8.0) ?x1032)) (* ?x1130 |v5:12|)) ?x2938)))
 (let ((?x2603 (* ?x2232 |v4:13|)))
 (let ((?x8584 (* 8.0 ?x3498)))
 (let ((?x3275 (* 20.0 ?x3498)))
 (let ((?x3780 (* 3.0 ?x3728)))
 (let ((?x2280 (+ (+ (+ (+ (* 13.0 |v0:17|) (* 12.0 |v16:1|)) (* ?x2282 |v1:16|)) ?x3780) ?x3275)))
 (let (($x1886 (or (<= (+ (+ ?x2280 ?x8584) ?x2603) 4.0) (<= (+ (+ (+ ?x2227 ?x589) ?x4722) ?x2441) ?x2232))))
 (let ((?x7118 (* 4.0 |v1:16|)))
 (let ((?x7514 (* 17.0 ?x2464)))
 (let ((?x1387 (* 14.0 |v17:0|)))
 (let ((?x18 (+ (+ (+ (+ (* ?x1862 |v0:17|) (* 5.0 |v12:5|)) (* 4.0 |v2:15|)) ?x1387) ?x7514)))
 (let ((?x618 (* ?x3189 |v2:15|)))
 (let ((?x1696 (* 9.0 |v1:16|)))
 (let ((?x3658 (* 6.0 ?x3728)))
 (let ((?x2725 (+ (+ (+ (+ (* 7.0 |v14:3|) (* ?x2282 |v1:16|)) (* ?x2092 ?x3728)) ?x3658) ?x1696)))
 (let (($x3847 (or (<= (+ (+ ?x2725 ?x618) ?x4148) 0.0) (<= (+ (+ ?x18 ?x1032) ?x7118) ?x430))))
 (let ((?x4671 (* 7.0 |v14:3|)))
 (let ((?x7490 (* 17.0 |v12:5|)))
 (let ((?x3085 (* 5.0 ?x4230)))
 (let ((?x4896 (* 19.0 ?x3498)))
 (let ((?x7371 (+ (+ (+ (* 17.0 |v0:17|) (* (- 8.0) ?x3728)) (* 10.0 |v13:4|)) ?x4896)))
 (let ((?x1490 (* 20.0 |v2:15|)))
 (let ((?x59 (* ?x430 |v4:13|)))
 (let ((?x2314 (+ (+ (+ (+ (* ?x3189 ?x1032) (* ?x2282 ?x3498)) (* 14.0 |v12:5|)) ?x59) (* 18.0 |v14:3|))))
 (let (($x2206 (or (<= (+ (+ ?x2314 ?x1490) (* ?x1862 ?x3498)) ?x2719) (<= (+ (+ (+ ?x7371 ?x3085) ?x7490) ?x4671) ?x1846))))
 (let (($x2455 (and (and (or $x2206 $x3847) (and $x1886 $x3970)) (and (or $x3390 $x455) (and $x2905 $x2472)))))
 (let ((?x3675 (* 18.0 |v15:2|)))
 (let ((?x5098 (* 6.0 ?x3498)))
 (let ((?x4575 (* 2.0 ?x3728)))
 (let ((?x3141 (+ (+ (+ (+ ?x59 (* 8.0 |v17:0|)) (* ?x2282 ?x3498)) (* ?x1430 |v17:0|)) ?x4575)))
 (let ((?x1656 (* ?x2169 |v5:12|)))
 (let ((?x111 (* 17.0 ?x4230)))
 (let ((?x4081 (* 11.0 ?x1032)))
 (let ((?x1900 (+ (+ (+ (+ (* ?x346 |v4:13|) (* (- 4.0) ?x2579)) (* ?x1846 ?x2464)) ?x3313) ?x4081)))
 (let (($x4182 (or (<= (+ (+ ?x1900 ?x111) ?x1656) 0.0) (<= (+ (+ ?x3141 ?x5098) ?x3675) ?x3198))))
 (let ((?x5543 (* 4.0 ?x3728)))
 (let ((?x2186 (* 16.0 |v16:1|)))
 (let ((?x3207 (* 5.0 |v16:1|)))
 (let ((?x2322 (+ (+ (+ (+ (* ?x1782 ?x3728) (* ?x346 ?x3498)) (* 14.0 ?x4230)) ?x3207) ?x2186)))
 (let ((?x4838 (* ?x4201 ?x4230)))
 (let ((?x912 (* 2.0 ?x2464)))
 (let ((?x326 (+ (+ (+ (+ (+ (* (- 4.0) |v14:3|) ?x59) ?x4230) (* ?x2282 ?x3498)) ?x912) ?x4722)))
 (let (($x4185 (and (or (<= (+ ?x326 ?x4838) ?x4201) (<= (+ (+ ?x2322 ?x5543) ?x1785) 16.0)) $x4182)))
 (let ((?x23 (* 13.0 |v0:17|)))
 (let ((?x3368 (+ (+ (+ (+ (* 19.0 |v16:1|) ?x3866) (* ?x2282 ?x2464)) ?x45) (* 6.0 |v12:5|))))
 (let ((?x3553 (* ?x2232 |v2:15|)))
 (let ((?x1698 (* 5.0 |v0:17|)))
 (let ((?x1849 (- 4.0)))
 (let ((?x6662 (* ?x1849 ?x2464)))
 (let ((?x1606 (* ?x2092 |v4:13|)))
 (let ((?x544 (+ (+ (+ (+ (* 10.0 |v16:1|) (* ?x346 |v16:1|)) (* ?x101 ?x3498)) ?x1606) ?x6662)))
 (let (($x141 (or (<= (+ (+ ?x544 ?x1698) ?x3553) 5.0) (<= (+ (+ ?x3368 (* ?x1849 |v15:2|)) ?x23) 6.0))))
 (let ((?x3983 (* 15.0 |v4:13|)))
 (let ((?x5274 (* 16.0 |v3:14|)))
 (let ((?x3660 (+ (+ (+ (* 7.0 |v1:16|) (* ?x1430 |v5:12|)) (* 20.0 ?x1032)) (* ?x2719 ?x4230))))
 (let ((?x2997 (* 11.0 |v5:12|)))
 (let ((?x2283 (+ (+ (+ (+ ?x1742 ?x1983) (* 13.0 |v13:4|)) (* ?x1130 |v1:16|)) (* 3.0 |v14:3|))))
 (let (($x929 (or (<= (+ (+ ?x2283 ?x3294) ?x2997) ?x1483) (<= (+ (+ (+ ?x3660 ?x5274) ?x3983) ?x1606) ?x1130))))
 (let ((?x3267 (* ?x101 |v0:17|)))
 (let ((?x3800 (- 8.0)))
 (let ((?x5111 (* ?x3800 ?x2464)))
 (let ((?x1408 (* 4.0 |v15:2|)))
 (let ((?x802 (+ (+ (+ (+ (* 6.0 |v0:17|) ?x3216) (* 3.0 ?x2579)) (* 6.0 |v5:12|)) ?x1408)))
 (let ((?x4088 (* ?x2169 |v14:3|)))
 (let ((?x1412 (+ (+ (+ (+ (* ?x1771 |v0:17|) ?x111) (* 20.0 |v5:12|)) (* 5.0 |v17:0|)) ?x1054)))
 (let (($x1897 (or (<= (+ (+ ?x1412 ?x4088) ?x3275) ?x2169) (<= (+ (+ ?x802 ?x5111) ?x3267) 18.0))))
 (let ((?x5573 (* ?x3800 |v4:13|)))
 (let ((?x918 (+ (+ (+ (+ (* 9.0 ?x3498) (* ?x3198 |v15:2|)) ?x7514) (* 12.0 |v5:12|)) ?x3313)))
 (let ((?x1658 (* 12.0 |v17:0|)))
 (let ((?x3589 (* ?x1782 |v3:14|)))
 (let ((?x5372 (+ (+ (+ (+ (* 18.0 |v3:14|) (* ?x3198 ?x2579)) (* ?x2719 |v17:0|)) ?x3589) ?x2306)))
 (let (($x1468 (and (<= (+ (+ ?x5372 ?x1658) ?x1742) 17.0) (<= (+ (+ ?x918 ?x5573) (* 14.0 ?x3728)) 9.0))))
 (let ((?x2832 (* 6.0 |v17:0|)))
 (let ((?x3415 (+ (+ (+ (+ (* 18.0 |v3:14|) ?x801) (* ?x1430 |v1:16|)) (* 8.0 ?x2579)) (* 10.0 ?x2579))))
 (let ((?x525 (* ?x1130 |v1:16|)))
 (let ((?x1603 (* 13.0 |v12:5|)))
 (let ((?x567 (* ?x2719 |v5:12|)))
 (let ((?x1616 (+ (+ (+ (* ?x2719 ?x3498) (* ?x2092 |v2:15|)) (* 19.0 |v14:3|)) (* ?x3189 |v16:1|))))
 (let (($x2393 (or (<= (+ (+ (+ ?x1616 ?x567) ?x1603) ?x525) ?x2092) (<= (+ (+ ?x3415 ?x4908) ?x2832) ?x1846))))
 (let ((?x4329 (* 15.0 |v2:15|)))
 (let ((?x4370 (* ?x2169 ?x1032)))
 (let ((?x4036 (+ (+ (+ (+ (* ?x3189 |v5:12|) ?x3431) (* 5.0 |v17:0|)) (* ?x3198 |v1:16|)) ?x4370)))
 (let ((?x7188 (* ?x1130 |v16:1|)))
 (let ((?x3697 (+ (+ (+ (* 9.0 |v13:4|) (* ?x3189 |v4:13|)) (* ?x2282 |v2:15|)) (* 6.0 |v14:3|))))
 (let (($x1944 (or (<= (+ (+ (+ ?x3697 ?x7188) (* ?x101 ?x2579)) ?x375) 3.0) (<= (+ (+ ?x4036 (* ?x3800 |v15:2|)) ?x4329) 6.0))))
 (let ((?x2237 (+ (+ (+ (+ (+ (* ?x1771 |v2:15|) ?x4148) (* ?x4201 |v12:5|)) ?x2872) ?x4908) ?x3664)))
 (let ((?x4364 (* ?x1782 |v4:13|)))
 (let ((?x2115 (* ?x1849 |v1:16|)))
 (let ((?x3789 (* 17.0 |v1:16|)))
 (let ((?x5291 (+ (+ (+ (+ (+ ?x6879 (* ?x101 |v12:5|)) (* 14.0 ?x4230)) ?x1374) ?x3789) ?x2115)))
 (let (($x1049 (and (or (and (<= (+ ?x5291 ?x4364) ?x1430) (<= (+ ?x2237 ?x5459) 9.0)) $x1944) (and $x2393 $x1468))))
 (let ((?x2006 (* 3.0 |v2:15|)))
 (let ((?x387 (+ (+ (+ (* ?x2282 |v16:1|) (* ?x346 ?x1032)) (* ?x1862 |v2:15|)) (* ?x1782 |v14:3|))))
 (let ((?x2219 (* 0.0 |v15:2|)))
 (let ((?x4513 (* 15.0 ?x1032)))
 (let ((?x3142 (+ (+ (+ (+ (* 14.0 ?x3498) (* ?x2169 ?x4230)) (* 16.0 |v1:16|)) ?x4513) ?x2115)))
 (let (($x2958 (or (<= (+ (+ ?x3142 ?x2219) ?x3191) ?x3800) (<= (+ (+ (+ ?x387 ?x1742) (* ?x2282 |v17:0|)) ?x2006) 5.0))))
 (let ((?x133 (* ?x2092 |v0:17|)))
 (let ((?x7144 (* ?x2092 ?x3728)))
 (let ((?x1002 (+ (+ (+ (* 19.0 |v3:14|) (* ?x101 ?x2464)) (* 11.0 ?x4230)) (* 0.0 ?x3728))))
 (let ((?x5932 (* ?x4201 ?x2464)))
 (let ((?x331 (* 7.0 |v2:15|)))
 (let ((?x2554 (+ (+ (+ (+ (* ?x1430 ?x2464) (* ?x2282 |v5:12|)) (* 4.0 ?x4230)) ?x331) ?x3085)))
 (let (($x2042 (and (<= (+ (+ ?x2554 ?x4329) ?x5932) 3.0) (<= (+ (+ (+ ?x1002 ?x7144) ?x2219) ?x133) ?x346))))
 (let ((?x1140 (* ?x3198 |v4:13|)))
 (let ((?x3115 (+ (+ (+ (+ ?x2603 (* 9.0 ?x2579)) (* ?x1782 ?x1032)) ?x3250) (* 20.0 ?x2579))))
 (let ((?x2193 (+ (+ (+ (+ (* 11.0 |v0:17|) (* ?x430 ?x3498)) (* ?x1130 ?x1032)) ?x3431) (* 16.0 |v12:5|))))
 (let (($x723 (or (<= (+ (+ ?x2193 (* ?x1862 |v15:2|)) ?x4513) ?x2092) (<= (+ (+ ?x3115 ?x1140) (* ?x3189 ?x3498)) 8.0))))
 (let ((?x2899 (* 3.0 |v12:5|)))
 (let ((?x1716 (* ?x1483 |v3:14|)))
 (let ((?x6237 (+ (+ (+ (* 8.0 ?x2579) (* ?x2092 |v17:0|)) (* ?x1483 ?x3728)) (* ?x3800 |v13:4|))))
 (let ((?x247 (* 16.0 |v4:13|)))
 (let ((?x3056 (* 10.0 |v12:5|)))
 (let ((?x3579 (* 16.0 |v0:17|)))
 (let ((?x5149 (+ (+ (+ (+ (+ ?x2872 (* 9.0 |v13:4|)) ?x133) (* 3.0 |v15:2|)) ?x3579) ?x3056)))
 (let (($x3924 (and (<= (+ ?x5149 ?x247) ?x2092) (<= (+ (+ (+ ?x6237 ?x1716) ?x2899) ?x6662) 17.0))))
 (let ((?x2478 (* ?x1846 ?x1032)))
 (let ((?x2957 (+ (+ (+ (+ (+ (+ ?x3056 ?x759) (* ?x430 |v2:15|)) ?x4658) ?x4575) ?x2975) ?x2478)))
 (let ((?x4058 (* 16.0 ?x3728)))
 (let ((?x1989 (* ?x101 |v12:5|)))
 (let ((?x3054 (* ?x1483 |v5:12|)))
 (let ((?x5169 (* ?x101 ?x3498)))
 (let ((?x4989 (+ (+ (+ (+ (* 6.0 ?x2579) (* ?x2282 ?x1032)) (* 0.0 |v17:0|)) ?x5169) ?x3054)))
 (let ((?x5020 (* 10.0 |v2:15|)))
 (let ((?x5517 (* ?x1430 ?x2464)))
 (let ((?x4163 (+ (+ (+ (+ (* 9.0 |v0:17|) ?x3780) (* ?x1782 ?x2579)) (* 14.0 |v5:12|)) ?x5517)))
 (let ((?x5852 (+ (+ (+ (+ |v5:12| (* ?x2232 |v17:0|)) ?x2644) (* 14.0 |v2:15|)) (* 6.0 |v13:4|))))
 (let (($x443 (or (<= (+ (+ ?x5852 ?x3250) ?x2864) ?x1849) (<= (+ (+ ?x4163 ?x4658) ?x5020) ?x4201))))
 (let ((?x3963 (* 8.0 ?x3728)))
 (let ((?x5370 (* 15.0 |v17:0|)))
 (let ((?x1134 (* 12.0 |v15:2|)))
 (let ((?x1076 (+ (+ (+ (+ (* ?x101 ?x2464) ?x3579) (* 14.0 |v12:5|)) (* 9.0 |v14:3|)) ?x1134)))
 (let (($x1275 (and (<= (+ (+ ?x1076 ?x5370) ?x3963) ?x430) (or $x443 (and (<= (+ (+ ?x4989 ?x1989) ?x4058) ?x4201) (<= ?x2957 1.0))))))
 (let ((?x5423 (* 4.0 |v5:12|)))
 (let ((?x1185 (* 0.0 |v14:3|)))
 (let ((?x2651 (+ (+ (+ (+ (* 16.0 ?x4230) (* ?x1846 |v14:3|)) (* 7.0 |v3:14|)) ?x5932) ?x2441)))
 (let (($x2382 (or (or (<= (+ (+ ?x2651 ?x1185) ?x5423) 20.0) $x1275) (or (or (and $x3924 $x723) (or $x2042 $x2958)) $x1049))))
 (let ((?x1402 (* 9.0 |v17:0|)))
 (let ((?x8605 (* 13.0 ?x3498)))
 (let ((?x996 (+ (+ (+ (+ (* ?x1130 |v5:12|) (* ?x3198 |v12:5|)) (* ?x3800 |v14:3|)) ?x4722) ?x2644)))
 (let ((?x1370 (* 11.0 |v17:0|)))
 (let ((?x1717 (* ?x3800 ?x1032)))
 (let ((?x1064 (* 12.0 |v0:17|)))
 (let ((?x1710 (+ (+ (+ (+ (+ (* ?x1771 |v14:3|) (* 9.0 ?x4230)) ?x1698) ?x1696) ?x1064) ?x1717)))
 (let ((?x2269 (* ?x3800 |v14:3|)))
 (let ((?x2137 (* ?x1782 |v13:4|)))
 (let ((?x1760 (* 19.0 |v3:14|)))
 (let ((?x7182 (* 3.0 ?x2464)))
 (let ((?x2726 (+ (+ (+ (+ (* 9.0 |v2:15|) (* ?x4201 |v14:3|)) (* 16.0 ?x4230)) ?x7182) ?x1760)))
 (let ((?x3508 (+ (+ (+ (+ (* 7.0 |v1:16|) (* 19.0 ?x1032)) ?x3481) (* 18.0 |v4:13|)) ?x8584)))
 (let (($x3000 (and (<= (+ (+ ?x3508 (* 2.0 ?x4230)) ?x1845) ?x1862) (<= (+ (+ ?x2726 ?x2137) ?x2269) ?x1849))))
 (let (($x1564 (or $x3000 (and (<= (+ ?x1710 ?x1370) ?x1782) (<= (+ (+ ?x996 ?x8605) ?x1402) 0.0)))))
 (let ((?x4301 (* 15.0 ?x4230)))
 (let ((?x6183 (* 3.0 ?x1032)))
 (let ((?x1671 (+ (+ (+ (+ (+ ?x1989 ?x3963) (* ?x1483 |v12:5|)) ?x2853) (* ?x2719 |v14:3|)) ?x6183)))
 (let ((?x13 (* ?x3198 |v3:14|)))
 (let ((?x496 (+ (+ (+ (+ (+ ?x3207 ?x111) (* 14.0 ?x1032)) (* 5.0 |v3:14|)) ?x13) (* ?x2719 |v16:1|))))
 (let ((?x4365 (* 5.0 |v15:2|)))
 (let ((?x1344 (* ?x3198 |v1:16|)))
 (let ((?x3178 (+ (+ (+ (* 9.0 |v0:17|) (* 15.0 |v3:14|)) ?x275) ?x1344)))
 (let ((?x3630 (* 9.0 |v15:2|)))
 (let ((?x1143 (+ (+ (+ (+ (* 5.0 ?x3498) ?x4204) (* 10.0 ?x1032)) (* ?x2719 ?x1032)) ?x375)))
 (let (($x128 (and (<= (+ (+ ?x1143 ?x3630) ?x3658) ?x2169) (<= (+ (+ (+ ?x3178 (* ?x1130 |v17:0|)) ?x4365) ?x912) ?x1846))))
 (let (($x2558 (or $x128 (and (<= (+ ?x496 (* ?x1430 ?x1032)) ?x3189) (<= (+ ?x1671 ?x4301) ?x1782)))))
 (let ((?x2993 (* 17.0 ?x1032)))
 (let ((?x1820 (* 3.0 ?x2579)))
 (let ((?x5747 (* ?x2232 |v3:14|)))
 (let ((?x4093 (+ (+ (+ (+ (* 4.0 ?x4230) (* ?x1846 |v1:16|)) (* ?x4201 |v5:12|)) ?x5747) ?x1820)))
 (let ((?x5700 (* ?x1849 ?x2579)))
 (let ((?x3328 (* 6.0 |v4:13|)))
 (let ((?x4018 (+ (+ (+ (+ (+ (* ?x1849 ?x4230) (* 10.0 |v0:17|)) ?x4058) ?x4081) ?x3328) ?x3398)))
 (let ((?x1923 (* 8.0 |v13:4|)))
 (let ((?x2447 (+ (+ (+ (+ (* ?x1130 ?x3728) (* ?x1849 ?x4230)) ?x4513) (* ?x1430 ?x2579)) ?x3401)))
 (let ((?x2921 (+ (+ (+ (+ ?x6272 (* 12.0 |v16:1|)) (* ?x101 |v2:15|)) ?x9046) (* ?x3189 |v14:3|))))
 (let (($x2128 (or (<= (+ (+ ?x2921 (* ?x346 |v12:5|)) |v2:15|) ?x1862) (<= (+ (+ ?x2447 ?x1923) ?x2137) 19.0))))
 (let (($x2248 (and $x2128 (and (<= (+ ?x4018 ?x5700) ?x1771) (<= (+ (+ ?x4093 ?x2993) ?x4575) 15.0)))))
 (let ((?x1086 (* ?x430 |v12:5|)))
 (let ((?x4147 (* ?x2282 ?x2579)))
 (let ((?x394 (* ?x346 |v2:15|)))
 (let ((?x2331 (+ (+ (+ (+ (* ?x430 |v14:3|) ?x4365) (* 4.0 |v16:1|)) (* ?x1771 ?x2579)) ?x394)))
 (let ((?x56 (+ (+ (+ (+ (+ (* 7.0 |v3:14|) ?x1603) ?x2975) ?x247) ?x7490) (* ?x1430 ?x3728))))
 (let ((?x1648 (* 10.0 |v16:1|)))
 (let ((?x4135 (+ (+ (+ (+ (+ (* 20.0 ?x2464) ?x567) ?x2993) (* ?x3189 |v4:13|)) ?x1648) (* 0.0 ?x4230))))
 (let (($x2426 (or (<= (+ ?x4135 (* ?x430 ?x2464)) 12.0) (<= (+ ?x56 (* ?x1771 ?x1032)) 3.0))))
 (let ((?x5484 (* ?x1846 |v1:16|)))
 (let ((?x2021 (* 5.0 |v1:16|)))
 (let ((?x2497 (* 4.0 |v16:1|)))
 (let ((?x3846 (* ?x1862 ?x3728)))
 (let ((?x2048 (+ (+ (+ (+ (* 9.0 |v16:1|) (* ?x2092 |v2:15|)) (* 14.0 |v14:3|)) ?x3846) ?x2497)))
 (let ((?x219 (+ (+ (+ (+ (+ ?x394 (* 2.0 ?x1032)) ?x82) (* 10.0 |v0:17|)) ?x1717) (* ?x3800 ?x4230))))
 (let (($x2855 (and (or (<= (+ ?x219 ?x5543) 20.0) (<= (+ (+ ?x2048 ?x2021) ?x5484) 7.0)) $x2426)))
 (let ((?x901 (* 8.0 |v12:5|)))
 (let ((?x1784 (+ (+ (+ (+ (+ ?x1134 (* ?x2092 |v2:15|)) ?x901) (* 17.0 |v3:14|)) ?x901) ?x342)))
 (let ((?x1119 (* 0.0 |v3:14|)))
 (let ((?x2360 (* ?x2719 |v2:15|)))
 (let ((?x3311 (+ (+ (+ (+ (* ?x3189 |v15:2|) (* ?x1849 |v17:0|)) (* 20.0 |v15:2|)) ?x1971) ?x2360)))
 (let (($x4177 (and (<= (+ (+ ?x3311 ?x1119) ?x5111) ?x1862) (<= (+ ?x1784 (* ?x430 |v15:2|)) ?x2282))))
 (let ((?x3730 (* 12.0 |v1:16|)))
 (let ((?x1503 (* ?x1771 |v3:14|)))
 (let ((?x4787 (+ (+ (+ (+ (* ?x1862 |v12:5|) (* 13.0 |v4:13|)) ?x2899) (* 4.0 ?x2579)) ?x1503)))
 (let ((?x2130 (* ?x1849 |v0:17|)))
 (let ((?x662 (* ?x2282 |v1:16|)))
 (let ((?x2566 (+ (+ (+ (+ (+ (* 8.0 |v0:17|) (* ?x430 |v14:3|)) ?x2478) ?x3056) ?x247) ?x662)))
 (let (($x8787 (or (<= (+ ?x2566 ?x2130) ?x1862) (<= (+ (+ ?x4787 ?x3730) (* ?x1846 ?x4230)) ?x1846))))
 (let ((?x1164 (* 12.0 ?x3728)))
 (let ((?x1543 (* 7.0 ?x3498)))
 (let ((?x1906 (+ (+ (+ (+ (* ?x101 ?x1032) (* 10.0 |v4:13|)) (* ?x1846 |v16:1|)) ?x1543) ?x1164)))
 (let ((?x5617 (* ?x1483 |v12:5|)))
 (let ((?x969 (+ (+ (+ (+ (* 4.0 |v13:4|) (* ?x2719 |v13:4|)) (* ?x3189 |v15:2|)) ?x901) (* ?x1430 |v16:1|))))
 (let (($x4175 (and (<= (+ (+ ?x969 ?x6774) ?x5617) ?x4201) (<= (+ (+ ?x1906 ?x3846) ?x1086) ?x1849))))
 (let ((?x772 (* 6.0 |v15:2|)))
 (let ((?x2799 (+ (+ (+ (+ (+ ?x728 ?x2115) ?x1923) ?x2769) (* ?x1849 |v2:15|)) (* ?x2232 |v13:4|))))
 (let ((?x384 (* 9.0 ?x1032)))
 (let ((?x5997 (+ (+ (+ (+ (* ?x2282 |v15:2|) (* 5.0 |v14:3|)) ?x2464) (* ?x1130 ?x3728)) ?x1989)))
 (let (($x2606 (and (<= (+ (+ ?x5997 (* ?x3800 ?x3498)) ?x384) 20.0) (<= (+ ?x2799 ?x772) 13.0))))
 (let ((?x183 (+ (+ (+ (+ (+ ?x9046 ?x3789) (* 13.0 |v5:12|)) (* ?x3189 |v5:12|)) ?x4088) ?x5098)))
 (let ((?x7146 (* 14.0 ?x4230)))
 (let ((?x1584 (* ?x1849 |v2:15|)))
 (let ((?x7526 (+ (+ (+ (+ (+ ?x4370 (* ?x2092 |v3:14|)) (* ?x1782 |v12:5|)) ?x1185) ?x1584) ?x375)))
 (let ((?x7102 (* 12.0 ?x3498)))
 (let ((?x2904 (+ (+ (+ (+ ?x3630 (* 11.0 |v3:14|)) (* 3.0 ?x3498)) (* ?x1782 ?x2464)) (* ?x1483 ?x4230))))
 (let ((?x330 (* ?x3189 |v1:16|)))
 (let ((?x2750 (+ (+ (+ (+ (* ?x2719 |v0:17|) (* ?x430 ?x1032)) (* 14.0 ?x2464)) ?x330) ?x8584)))
 (let (($x16 (or (<= (+ (+ ?x2750 ?x1370) (* 15.0 ?x2579)) 5.0) (<= (+ (+ ?x2904 (* ?x2169 ?x3498)) ?x7102) 0.0))))
 (let (($x2807 (or (and $x16 (or (<= (+ ?x7526 ?x7146) ?x2232) (<= (+ ?x183 ?x1923) ?x1782))) (and $x2606 $x4175))))
 (let (($x68 (and (or $x2807 (or (and $x8787 $x4177) $x2855)) (and (or (<= (+ (+ ?x2331 ?x4147) ?x1086) ?x2092) $x2248) (and $x2558 $x1564)))))
 (let (($x1439 (and (and $x68 $x2382) (or (or (or $x1897 (or (and $x929 $x141) $x4185)) $x2455) $x1446))))
 (let (($x4184 (not (= |v6:11_st| (RMk1 val!8747)))))
 (let (($x3947 (not (= |v7:10_st| (RMk1 val!8746)))))
 (let (($x3746 (not (= |v8:9_st| (RMk1 val!8745)))))
 (let (($x3505 (not (= |v9:8_st| (RMk1 val!8744)))))
 (let (($x1202 (not (= |v10:7_st| (RMk1 val!8743)))))
 (let (($x2351 (not (= |v11:6_st| (RMk1 val!8742)))))
 (and $x2351 $x1202 $x3505 $x3746 $x3947 $x4184 $x1439)))))))))))))))))))))))))))))))))))))))))))))))))))))))))))))))))))))))))))))))))))))))))))))))))))))))))))))))))))))))))))))))))))))))))))))))))))))))))))))))))))))))))))))))))))))))))))))))))))))))))))))))))))))))))))))))))))))))))))))))))))))))))))))))))))))))))))))))))))))))))))))))))))))))))))))))))))))))))))))))))))))))))))))))))))))))))))))))))))))))))))))))))))))))))
 )
 )
 )
 )
 )
 )
 )
 )
 )
 )
 )
 )
 )
 )
 )
 )
 )
 )
(check-sat)
